5 6 92
3 3 1 5 2 4 2 8 30 30 60 60 92 
4 5 1 1 1 1 2 1 3 2 20 20 38 38 70 70 90 
3 2 1 3 2 3 3 5 41 41 55 55 83 
3 4 1 2 2 2 3 13 41 42 58 58 92 
7 5 1 3 1 3 1 5 2 5 2 3 2 2 2 0 2 2 7 7 8 19 20 20 26 30 34 41 42 
7 2 1 4 1 4 1 1 1 1 1 4 2 4 2 0 5 5 7 7 13 13 14 14 16 37 41 41 43 
